40
    45    68    25    21     1    95     8     6    18    95    36    49    36    66    52    67    22    64    76    75    75    94     6    96    18    16    18    54     5    44    67    74    16    44    84    87    60    34    82    28
     9     3     9     3     7     4     2     7     9     1     9     1     1     5     9     1     1     3     3     2     3     7     6     1    10     6     6     6     3     5     7     5     2     4     2     9     6    10     2     8
  2017   780  2268  1232  1486  1892  1167  1097  1071  1186  1160  1453  1512  1372  1281  1940   691  1653  1349  1911  1161  1034  2267  1328  1293   663  1519   708   878  1372  1157  2024  1908  2167  1378   942   689  1616   816  1200
